c testni_primer_1min.txt 
c barvanje grafa [[1], [0, 1]]
p cnf nekaj nekaj
00 01 02 0
-00 -01 0
-00 -02 0
-01 -02 0
-00 -10 0
-01 -11 0
-02 -12 0
10 11 12 0
-10 -11 0
-10 -12 0
-11 -12 0
-10 -00 0
-11 -01 0
-12 -02 0
-10 -10 0
-11 -11 0
-12 -12 0